p edge 24
e 0 20
e 0 21
e 0 22
e 1 2
e 1 7
e 1 10
e 1 19
e 2 10
e 2 17
e 2 18
e 2 19
e 3 4
e 3 11
e 3 18
e 4 6
e 4 11
e 4 18
e 5 7
e 5 14
e 5 15
e 6 8
e 6 17
e 6 18
e 7 14
e 7 15
e 7 19
e 8 17
e 8 21
e 9 12
e 9 20
e 10 18
e 12 23
e 13 15
e 13 19
e 15 16
e 15 19
e 15 22
e 16 20
e 16 22
e 17 18
e 17 19
e 17 21
e 19 21
e 19 22
e 20 22
e 21 22
c k 8
